(set-logic ALL)
(declare-const self String)
(declare-const location_string String)
(assert (not (< (str.len location_string) 0)))
(assert (not (= (+ 0 (str.indexof location_string ";" 0)) (- 1))))
(assert (not (< (+ 0 (str.indexof location_string ";" 0)) 0)))
(assert (not (< (+ (+ 0 (str.indexof location_string ";" 0)) 1) 0)))
(assert (not (< (str.len location_string) 0)))
(assert (not (< (str.len (str.substr location_string (+ (+ 0 (str.indexof location_string ";" 0)) 1) (- (str.len location_string) (+ (+ 0 (str.indexof location_string ";" 0)) 1)))) 0)))
(assert (= (+ 0 (str.indexof (str.substr location_string (+ (+ 0 (str.indexof location_string ";" 0)) 1) (- (str.len location_string) (+ (+ 0 (str.indexof location_string ";" 0)) 1))) ";" 0)) (- 1)))
(assert (not (< (str.len (str.substr location_string 0 (- (+ 0 (str.indexof location_string ";" 0)) 0))) 0)))
(assert (not (= (+ 0 (str.indexof (str.substr location_string 0 (- (+ 0 (str.indexof location_string ";" 0)) 0)) "to" 0)) (- 1))))
(assert (not (< (+ 0 (str.indexof (str.substr location_string 0 (- (+ 0 (str.indexof location_string ";" 0)) 0)) "to" 0)) 0)))
(assert (not (< (+ (+ 0 (str.indexof (str.substr location_string 0 (- (+ 0 (str.indexof location_string ";" 0)) 0)) "to" 0)) 2) 0)))
(assert (not (< (str.len (str.substr location_string 0 (- (+ 0 (str.indexof location_string ";" 0)) 0))) 0)))
(assert (not (< (str.len (str.substr (str.substr location_string 0 (- (+ 0 (str.indexof location_string ";" 0)) 0)) (+ (+ 0 (str.indexof (str.substr location_string 0 (- (+ 0 (str.indexof location_string ";" 0)) 0)) "to" 0)) 2) (- (str.len (str.substr location_string 0 (- (+ 0 (str.indexof location_string ";" 0)) 0))) (+ (+ 0 (str.indexof (str.substr location_string 0 (- (+ 0 (str.indexof location_string ";" 0)) 0)) "to" 0)) 2)))) 0)))
(assert (not (= (+ 0 (str.indexof (str.substr (str.substr location_string 0 (- (+ 0 (str.indexof location_string ";" 0)) 0)) (+ (+ 0 (str.indexof (str.substr location_string 0 (- (+ 0 (str.indexof location_string ";" 0)) 0)) "to" 0)) 2) (- (str.len (str.substr location_string 0 (- (+ 0 (str.indexof location_string ";" 0)) 0))) (+ (+ 0 (str.indexof (str.substr location_string 0 (- (+ 0 (str.indexof location_string ";" 0)) 0)) "to" 0)) 2))) "to" 0)) (- 1))))
(assert (not (< (+ 0 (str.indexof (str.substr (str.substr location_string 0 (- (+ 0 (str.indexof location_string ";" 0)) 0)) (+ (+ 0 (str.indexof (str.substr location_string 0 (- (+ 0 (str.indexof location_string ";" 0)) 0)) "to" 0)) 2) (- (str.len (str.substr location_string 0 (- (+ 0 (str.indexof location_string ";" 0)) 0))) (+ (+ 0 (str.indexof (str.substr location_string 0 (- (+ 0 (str.indexof location_string ";" 0)) 0)) "to" 0)) 2))) "to" 0)) 0)))
(assert (not (< (+ (+ 0 (str.indexof (str.substr (str.substr location_string 0 (- (+ 0 (str.indexof location_string ";" 0)) 0)) (+ (+ 0 (str.indexof (str.substr location_string 0 (- (+ 0 (str.indexof location_string ";" 0)) 0)) "to" 0)) 2) (- (str.len (str.substr location_string 0 (- (+ 0 (str.indexof location_string ";" 0)) 0))) (+ (+ 0 (str.indexof (str.substr location_string 0 (- (+ 0 (str.indexof location_string ";" 0)) 0)) "to" 0)) 2))) "to" 0)) 2) 0)))
(assert (not (< (str.len (str.substr (str.substr location_string 0 (- (+ 0 (str.indexof location_string ";" 0)) 0)) (+ (+ 0 (str.indexof (str.substr location_string 0 (- (+ 0 (str.indexof location_string ";" 0)) 0)) "to" 0)) 2) (- (str.len (str.substr location_string 0 (- (+ 0 (str.indexof location_string ";" 0)) 0))) (+ (+ 0 (str.indexof (str.substr location_string 0 (- (+ 0 (str.indexof location_string ";" 0)) 0)) "to" 0)) 2)))) 0)))
(assert (not (< (str.len (str.substr (str.substr (str.substr location_string 0 (- (+ 0 (str.indexof location_string ";" 0)) 0)) (+ (+ 0 (str.indexof (str.substr location_string 0 (- (+ 0 (str.indexof location_string ";" 0)) 0)) "to" 0)) 2) (- (str.len (str.substr location_string 0 (- (+ 0 (str.indexof location_string ";" 0)) 0))) (+ (+ 0 (str.indexof (str.substr location_string 0 (- (+ 0 (str.indexof location_string ";" 0)) 0)) "to" 0)) 2))) (+ (+ 0 (str.indexof (str.substr (str.substr location_string 0 (- (+ 0 (str.indexof location_string ";" 0)) 0)) (+ (+ 0 (str.indexof (str.substr location_string 0 (- (+ 0 (str.indexof location_string ";" 0)) 0)) "to" 0)) 2) (- (str.len (str.substr location_string 0 (- (+ 0 (str.indexof location_string ";" 0)) 0))) (+ (+ 0 (str.indexof (str.substr location_string 0 (- (+ 0 (str.indexof location_string ";" 0)) 0)) "to" 0)) 2))) "to" 0)) 2) (- (str.len (str.substr (str.substr location_string 0 (- (+ 0 (str.indexof location_string ";" 0)) 0)) (+ (+ 0 (str.indexof (str.substr location_string 0 (- (+ 0 (str.indexof location_string ";" 0)) 0)) "to" 0)) 2) (- (str.len (str.substr location_string 0 (- (+ 0 (str.indexof location_string ";" 0)) 0))) (+ (+ 0 (str.indexof (str.substr location_string 0 (- (+ 0 (str.indexof location_string ";" 0)) 0)) "to" 0)) 2)))) (+ (+ 0 (str.indexof (str.substr (str.substr location_string 0 (- (+ 0 (str.indexof location_string ";" 0)) 0)) (+ (+ 0 (str.indexof (str.substr location_string 0 (- (+ 0 (str.indexof location_string ";" 0)) 0)) "to" 0)) 2) (- (str.len (str.substr location_string 0 (- (+ 0 (str.indexof location_string ";" 0)) 0))) (+ (+ 0 (str.indexof (str.substr location_string 0 (- (+ 0 (str.indexof location_string ";" 0)) 0)) "to" 0)) 2))) "to" 0)) 2)))) 0)))
(assert (not (= (+ 0 (str.indexof (str.substr (str.substr (str.substr location_string 0 (- (+ 0 (str.indexof location_string ";" 0)) 0)) (+ (+ 0 (str.indexof (str.substr location_string 0 (- (+ 0 (str.indexof location_string ";" 0)) 0)) "to" 0)) 2) (- (str.len (str.substr location_string 0 (- (+ 0 (str.indexof location_string ";" 0)) 0))) (+ (+ 0 (str.indexof (str.substr location_string 0 (- (+ 0 (str.indexof location_string ";" 0)) 0)) "to" 0)) 2))) (+ (+ 0 (str.indexof (str.substr (str.substr location_string 0 (- (+ 0 (str.indexof location_string ";" 0)) 0)) (+ (+ 0 (str.indexof (str.substr location_string 0 (- (+ 0 (str.indexof location_string ";" 0)) 0)) "to" 0)) 2) (- (str.len (str.substr location_string 0 (- (+ 0 (str.indexof location_string ";" 0)) 0))) (+ (+ 0 (str.indexof (str.substr location_string 0 (- (+ 0 (str.indexof location_string ";" 0)) 0)) "to" 0)) 2))) "to" 0)) 2) (- (str.len (str.substr (str.substr location_string 0 (- (+ 0 (str.indexof location_string ";" 0)) 0)) (+ (+ 0 (str.indexof (str.substr location_string 0 (- (+ 0 (str.indexof location_string ";" 0)) 0)) "to" 0)) 2) (- (str.len (str.substr location_string 0 (- (+ 0 (str.indexof location_string ";" 0)) 0))) (+ (+ 0 (str.indexof (str.substr location_string 0 (- (+ 0 (str.indexof location_string ";" 0)) 0)) "to" 0)) 2)))) (+ (+ 0 (str.indexof (str.substr (str.substr location_string 0 (- (+ 0 (str.indexof location_string ";" 0)) 0)) (+ (+ 0 (str.indexof (str.substr location_string 0 (- (+ 0 (str.indexof location_string ";" 0)) 0)) "to" 0)) 2) (- (str.len (str.substr location_string 0 (- (+ 0 (str.indexof location_string ";" 0)) 0))) (+ (+ 0 (str.indexof (str.substr location_string 0 (- (+ 0 (str.indexof location_string ";" 0)) 0)) "to" 0)) 2))) "to" 0)) 2))) "to" 0)) (- 1))))
(check-sat)
(get-value (self))
(get-value (location_string))
